NAME: instance_290
TYPE: TSP
DIMENSION: 20
EDGE_WEIGHT_TYPE: EUC_2D
NODE_COORD_SECTION
0 95.15 93.62
1 17.29 48.86
2 93.02 56.47
3 47.67 54.92
4 13.80 76.08
5 98.87 15.43
6 70.95 57.87
7 33.83 16.16
8 32.11 31.27
9 62.73 56.76
10 69.42 76.96
11 23.80 62.76
12 16.91 12.70
13 58.76 8.39
14 13.77 98.84
15 33.07 34.34
16 64.49 49.63
17 39.12 16.51
18 39.52 56.86
19 78.12 69.31
EOF
